p cnf 28 142
5 0
6 0
3 0
4 0
7 0
-1 0
-2 0
-8 0
-9 0
-10 0
-11 5 0
-11 3 0
-11 7 0
-12 5 0
-12 3 0
-12 7 0
-13 8 0
-14 8 0
-15 -10 0
-15 8 0
-15 6 0
-16 -10 0
-16 8 0
-16 6 0
-17 -10 0
-17 1 0
-17 5 0
-17 7 0
-18 -10 0
-18 1 0
-18 5 0
-18 7 0
-11 -21 0
-11 -23 0
-11 -25 0
-11 26 0
-12 -21 0
-12 -23 0
-12 -25 0
-12 26 0
-13 -26 0
-13 23 0
-13 25 0
-13 21 0
-14 -26 0
-14 23 0
-14 25 0
-14 21 0
-15 -26 0
-15 -24 0
-15 23 0
-15 25 0
-15 19 0
-16 -26 0
-16 -24 0
-16 23 0
-16 25 0
-16 19 0
-17 26 0
-17 24 0
-17 -23 0
-17 -25 0
-17 -19 0
-18 26 0
-18 24 0
-18 -23 0
-18 -25 0
-18 -19 0
-11 -1 19 0
-11 -2 20 0
-11 -4 22 0
-11 -6 24 0
-11 -9 27 0
-11 -10 28 0
-12 -1 19 0
-12 -2 20 0
-12 -4 22 0
-12 -6 24 0
-12 -9 27 0
-12 -10 28 0
-13 -1 19 0
-13 -2 20 0
-13 -4 22 0
-13 -6 24 0
-13 -9 27 0
-13 -10 28 0
-14 -1 19 0
-14 -2 20 0
-14 -4 22 0
-14 -6 24 0
-14 -9 27 0
-14 -10 28 0
-15 -2 20 0
-15 -3 21 0
-15 -4 22 0
-15 -9 27 0
-15 -10 28 0
-16 -2 20 0
-16 -3 21 0
-16 -4 22 0
-16 -9 27 0
-16 -10 28 0
-17 -2 20 0
-17 -3 21 0
-17 -4 22 0
-17 -9 27 0
-17 -10 28 0
-18 -2 20 0
-18 -3 21 0
-18 -4 22 0
-18 -9 27 0
-18 -10 28 0
11 12 13 14 15 16 17 18  0
-11 -12 0
-11 -13 0
-11 -14 0
-11 -15 0
-11 -16 0
-11 -17 0
-11 -18 0
-12 -13 0
-12 -14 0
-12 -15 0
-12 -16 0
-12 -17 0
-12 -18 0
-13 -14 0
-13 -15 0
-13 -16 0
-13 -17 0
-13 -18 0
-14 -15 0
-14 -16 0
-14 -17 0
-14 -18 0
-15 -16 0
-15 -17 0
-15 -18 0
-16 -17 0
-16 -18 0
-17 -18 0
19 0
